generation,value,overweight
1,6395,4678
2,7372,2401
3,6656,753
4,3813,0
5,5444,0
6,5564,0
7,6411,0
8,6411,0
9,7539,0
10,7539,0
11,7778,0
12,7778,0
13,7778,0
14,7778,0
15,7913,0
16,8344,0
17,8344,0
18,8344,0
19,8344,0
20,8344,0
21,8344,0
22,8344,0
23,8344,0
24,8344,0
25,8344,0
26,8344,0
27,8344,0
28,8344,0
29,8344,0
30,8344,0
31,8344,0
32,8344,0
33,8344,0
34,8344,0
35,8344,0
36,8344,0
37,8344,0
38,8344,0
39,8344,0
40,8344,0
41,8344,0
42,8344,0
43,8344,0
44,8344,0
45,8344,0
46,8344,0
47,8344,0
48,8344,0
49,8344,0
50,8344,0
